\ exercise 2
Minimize
  e1 + e2 + e3 + e4
Subject To
  object1 : e1 + e2 >= 1
  object2 : e1 + e3 >= 1
  object3 : e1 + e4 >= 1
  object4 : e2 + e3 >= 1
  object5 : e2 + e4 >= 1
  object6 : e3 + e4 >= 1
Binary
  e1 e2 e3 e4
End